
Gurobi 11.0.0 (linux64) logging started Thu Jan  9 16:08:28 2025

Set parameter LogFile to value "gurobi.log"
Set parameter InfUnbdInfo to value 1
Gurobi Optimizer version 11.0.0 build v11.0.0rc2 (linux64 - "Ubuntu 22.04.4 LTS")

CPU model: AMD EPYC 7V13 64-Core Processor, instruction set [SSE2|AVX|AVX2]
Thread count: 128 physical cores, 128 logical processors, using up to 32 threads

Optimize a model with 158 rows, 549 columns and 437 nonzeros
Model fingerprint: 0xb7f61005
Model has 372 quadratic constraints
Model has 61 general constraints
Variable types: 112 continuous, 437 integer (0 binary)
Coefficient statistics:
  Matrix range     [1e+00, 2e+01]
  QMatrix range    [1e+00, 2e+02]
  QLMatrix range   [1e+00, 1e+00]
  Objective range  [1e+00, 1e+00]
  Bounds range     [1e+00, 1e+06]
  RHS range        [1e+00, 4e+00]
  QRHS range       [2e+02, 5e+05]
  GenCon rhs range [1e+00, 1e+00]
  GenCon coe range [1e+00, 1e+00]
Using branch priorities (all 0).
Presolve added 137 rows and 70 columns
Presolve time: 0.01s
Presolved: 1328 rows, 1191 columns, 4951 nonzeros
Presolved model has 373 SOS constraint(s)
Presolved model has 105 bilinear constraint(s)
Warning: Model contains variables with very large bounds participating
         in product terms.
         Presolve was not able to compute smaller bounds for these variables.
         Consider bounding these variables or reformulating the model.


Solving non-convex MIQCP

Variable types: 321 continuous, 870 integer (311 binary)

Root relaxation: objective 4.572820e+01, 453 iterations, 0.00 seconds (0.00 work units)

    Nodes    |    Current Node    |     Objective Bounds      |     Work
 Expl Unexpl |  Obj  Depth IntInf | Incumbent    BestBd   Gap | It/Node Time

     0     0   45.72820    0  233          -   45.72820      -     -    0s
     0     0   45.73602    0  206          -   45.73602      -     -    0s
     0     0  154.61040    0  424          -  154.61040      -     -    0s
H    0     0                    2.095195e+07  154.61040   100%     -    0s
H    0     0                    1.349948e+07  154.61040   100%     -    0s
     0     0  154.61040    0  424 1.3499e+07  154.61040   100%     -    0s
H    0     0                    1.348395e+07  154.61040   100%     -    0s
     0     0  173.33058    0  428 1.3484e+07  173.33058   100%     -    0s
     0     0  173.49646    0  435 1.3484e+07  173.49646   100%     -    0s
     0     0  183.84965    0  467 1.3484e+07  183.84965   100%     -    0s
     0     0  183.84965    0  399 1.3484e+07  183.84965   100%     -    0s
     0     0  184.71933    0  421 1.3484e+07  184.71933   100%     -    0s
     0     0  184.88775    0  522 1.3484e+07  184.88775   100%     -    0s
     0     0  184.88775    0  522 1.3484e+07  184.88775   100%     -    0s
     0     0  215.62198    0  527 1.3484e+07  215.62198   100%     -    0s
     0     0  251.35772    0  547 1.3484e+07  251.35772   100%     -    0s
     0     0  272.48093    0  508 1.3484e+07  272.48093   100%     -    0s
     0     0  272.48093    0  559 1.3484e+07  272.48093   100%     -    0s
     0     0  272.53456    0  512 1.3484e+07  272.53456   100%     -    0s
     0     0  286.71262    0  596 1.3484e+07  286.71262   100%     -    0s
H    0     0                    1.348395e+07  286.71262   100%     -    0s
     0     0  286.71262    0  475 1.3484e+07  286.71262   100%     -    0s
H    0     0                    1.348134e+07  286.71262   100%     -    0s
     0     0  286.71262    0  529 1.3481e+07  286.71262   100%     -    0s
H    0     0                    334007.95833  286.71262   100%     -    0s
     0     0  286.71262    0  515 334007.958  286.71262   100%     -    0s
     0     0  286.71262    0  564 334007.958  286.71262   100%     -    0s
     0     0  286.71262    0  607 334007.958  286.71262   100%     -    0s
     0     0  286.71262    0  502 334007.958  286.71262   100%     -    0s
     0     0  286.71262    0  532 334007.958  286.71262   100%     -    0s
     0     0  292.23571    0  355 334007.958  292.23571   100%     -    1s
     0     0  292.23571    0  163 334007.958  292.23571   100%     -    2s
     0     0  292.23571    0  212 334007.958  292.23571   100%     -    3s
     0     0  292.23571    0  290 334007.958  292.23571   100%     -    3s
     0     0  304.30419    0  271 334007.958  304.30419   100%     -    3s
H    0     0                    331395.64583  305.67871   100%     -    4s
H    0     0                    328669.45833  305.67871   100%     -    4s
     0     0  305.67871    0  259 328669.458  305.67871   100%     -    4s
     0     0  313.38734    0  322 328669.458  313.38734   100%     -    4s
     0     0  313.39402    0  320 328669.458  313.39402   100%     -    4s
     0     0  343.37134    0  242 328669.458  343.37134   100%     -    5s
H    0     0                    303221.57867  344.58661   100%     -    5s
     0     0  345.48460    0  233 303221.579  345.48460   100%     -    6s
     0     0  355.27332    0  257 303221.579  355.27332   100%     -    6s
     0     0  357.91808    0  253 303221.579  357.91808   100%     -    6s
     0     0  372.66499    0  267 303221.579  372.66499   100%     -    7s
     0     0  372.82162    0  278 303221.579  372.82162   100%     -    7s
     0     0  374.26606    0  302 303221.579  374.26606   100%     -    7s
     0     0  374.26881    0  299 303221.579  374.26881   100%     -    8s
     0     0  378.40589    0  296 303221.579  378.40589   100%     -    8s
     0     0  378.53569    0  296 303221.579  378.53569   100%     -    8s
     0     0  379.37712    0  308 303221.579  379.37712   100%     -    9s
     0     0  379.42956    0  312 303221.579  379.42956   100%     -    9s
     0     0  379.95077    0  290 303221.579  379.95077   100%     -    9s
     0     0  380.02366    0  306 303221.579  380.02366   100%     -    9s
     0     0  380.02366    0  306 303221.579  380.02366   100%     -   10s
     0     0  380.02366    0  307 303221.579  380.02366   100%     -   10s
     0     0  380.31132    0  308 303221.579  380.31132   100%     -   10s
H    0     0                    289381.20522  380.31132   100%     -   12s
     0     0  381.78636    0  308 289381.205  381.78636   100%     -   12s
     0     2  381.78639    0  308 289381.205  381.78639   100%     -   13s
H  101   114                    272280.70522  590.93630   100%  98.5   14s
   158   151 42339.2117    8  219 272280.705  590.93630   100%  93.3   15s
H  302   258                    246516.59312  590.93630   100%  67.9   15s
H  316   306                    246516.09312  590.93630   100%  66.6   15s
H  465   378                    208110.88657  590.93630   100%  59.7   15s
H  576   523                    163173.71674  741.18648   100%  54.6   16s
H  769   584                    144643.71674  854.97005  99.4%  47.4   16s
H 1241   815                    103601.80651  854.97005  99.2%  39.5   17s
H 1542  1028                    91067.202522  854.97005  99.1%  39.0   18s
H 1763  1148                    91067.140022 1191.16144  98.7%  38.2   18s
H 1766  1148                    90929.939215 1191.16144  98.7%  38.5   18s
H 2049  1217                    76009.510506 1191.16144  98.4%  37.3   19s
  2550  1401 infeasible   11      76009.5105 1284.94732  98.3%  38.9   20s
* 3050  1498              47    67974.998883 1284.94732  98.1%  38.2   20s
* 3051  1498              47    67974.748883 1284.94732  98.1%  38.2   20s
* 3275  1554              49    67126.591751 1284.94732  98.1%  37.3   21s
* 3277  1554              48    62176.466751 1284.94732  97.9%  37.3   21s
* 4467  1802              64    61449.878447 1611.62314  97.4%  34.8   22s
* 4468  1802              64    61449.628447 1611.62314  97.4%  34.8   22s
* 4489  1802              50    48720.317493 1611.62314  96.7%  34.8   22s
* 4490  1802              50    48405.067493 1611.62314  96.7%  34.7   22s
* 4492  1802              50    47180.067493 1611.62314  96.6%  34.7   22s
* 4493  1802              50    46864.817493 1611.62314  96.6%  34.7   22s
H 5879  1694                    45107.669180 2725.83333  94.0%  33.1   24s
* 6085  1633              44    42645.191832 2725.83333  93.6%  32.8   24s
  6492  1390 6819.20978   13  265 42645.1918 2725.83333  93.6%  32.2   25s
H 8140   804                    41083.183396 3253.27932  92.1%  28.7   26s
* 9700   275              40    41019.724818 10500.3528  74.4%  25.3   27s
H 9970   244                    41019.599818 10500.3528  74.4%  25.1   28s
H10001   244                    40852.913685 10500.3528  74.3%  25.0   28s
H10024   244                    40852.788685 10500.3528  74.3%  25.0   28s
H10123   244                    40852.663685 10500.3528  74.3%  24.8   28s
H10322   117                    40852.538685 21809.4852  46.6%  24.6   28s

Cutting planes:
  Gomory: 20
  Cover: 21
  Implied bound: 442
  Clique: 4
  MIR: 122
  StrongCG: 3
  Flow cover: 32
  Inf proof: 2
  Network: 2
  RLT: 113
  Relax-and-lift: 44
  BQP: 2

Explored 10975 nodes (266424 simplex iterations) in 29.79 seconds (1.70 work units)
Thread count was 32 (of 128 available processors)

Solution count 10: 40852.5 40852.7 40852.8 ... 46864.8

Optimal solution found (tolerance 1.00e-04)
Warning: max constraint violation (7.6333e-04) exceeds tolerance
Warning: max general constraint violation (7.6333e-04) exceeds tolerance
Best objective 4.085253868473e+04, best bound 4.085253868473e+04, gap 0.0000%

Gurobi 11.0.0 (linux64) logging started Fri Jan 10 12:33:40 2025

Set parameter LogFile to value "gurobi.log"
Set parameter InfUnbdInfo to value 1
Gurobi Optimizer version 11.0.0 build v11.0.0rc2 (linux64 - "Ubuntu 22.04.4 LTS")

CPU model: AMD EPYC 7V13 64-Core Processor, instruction set [SSE2|AVX|AVX2]
Thread count: 128 physical cores, 128 logical processors, using up to 32 threads

Optimize a model with 158 rows, 549 columns and 437 nonzeros
Model fingerprint: 0xfbf3e94d
Model has 372 quadratic constraints
Model has 61 general constraints
Variable types: 112 continuous, 437 integer (0 binary)
Coefficient statistics:
  Matrix range     [1e+00, 2e+01]
  QMatrix range    [1e+00, 2e+02]
  QLMatrix range   [1e+00, 1e+00]
  Objective range  [1e+00, 1e+00]
  Bounds range     [1e+00, 1e+06]
  RHS range        [1e+00, 4e+00]
  QRHS range       [2e+02, 5e+05]
  GenCon rhs range [1e+00, 1e+00]
  GenCon coe range [1e+00, 1e+00]
Using branch priorities (all 0).
Presolve added 137 rows and 70 columns
Presolve time: 0.01s
Presolved: 1332 rows, 1192 columns, 4963 nonzeros
Presolved model has 373 SOS constraint(s)
Presolved model has 106 bilinear constraint(s)
Warning: Model contains variables with very large bounds participating
         in product terms.
         Presolve was not able to compute smaller bounds for these variables.
         Consider bounding these variables or reformulating the model.


Solving non-convex MIQCP

Variable types: 321 continuous, 871 integer (311 binary)

Root relaxation: objective 4.572820e+01, 435 iterations, 0.00 seconds (0.00 work units)

    Nodes    |    Current Node    |     Objective Bounds      |     Work
 Expl Unexpl |  Obj  Depth IntInf | Incumbent    BestBd   Gap | It/Node Time

     0     0   45.72820    0  251          -   45.72820      -     -    0s
     0     0   45.73602    0  224          -   45.73602      -     -    0s
H    0     0                    1.436609e+07   45.73602   100%     -    0s
     0     0  142.79178    0  483 1.4366e+07  142.79178   100%     -    0s
     0     0  143.19419    0  483 1.4366e+07  143.19419   100%     -    0s
     0     0  160.91060    0  418 1.4366e+07  160.91060   100%     -    0s
H    0     0                    1.436069e+07  160.91060   100%     -    0s
     0     0  164.32763    0  434 1.4361e+07  164.32763   100%     -    0s
     0     0  166.96994    0  519 1.4361e+07  166.96994   100%     -    0s
     0     0  189.37438    0  503 1.4361e+07  189.37438   100%     -    0s
     0     0  189.42898    0  503 1.4361e+07  189.42898   100%     -    0s
     0     0  332.40256    0  538 1.4361e+07  332.40256   100%     -    0s
H    0     0                    1.423360e+07  332.40256   100%     -    0s
     0     0  349.94770    0  520 1.4234e+07  349.94770   100%     -    0s
     0     0 1094.16414    0  269 1.4234e+07 1094.16414   100%     -    0s
     0     0 1094.16414    0  265 1.4234e+07 1094.16414   100%     -    0s
     0     0 1094.16414    0  432 1.4234e+07 1094.16414   100%     -    0s
H    0     0                    1.423206e+07 1094.16414   100%     -    0s
     0     0 1094.16414    0  380 1.4232e+07 1094.16414   100%     -    0s
H    0     0                    1.351906e+07 1094.16414   100%     -    0s
     0     0 1094.16414    0  303 1.3519e+07 1094.16414   100%     -    0s
     0     0 1094.16414    0  340 1.3519e+07 1094.16414   100%     -    0s
     0     0 1094.16414    0  159 1.3519e+07 1094.16414   100%     -    0s
H    0     0                    1.350607e+07 1094.16414   100%     -    0s
H    0     0                    1.350337e+07 1094.16414   100%     -    0s
     0     0 1094.16414    0  304 1.3503e+07 1094.16414   100%     -    0s
H    0     0                    1.350301e+07 1094.16414   100%     -    0s
     0     0 1094.16414    0  147 1.3503e+07 1094.16414   100%     -    0s
     0     0 1094.16414    0  271 1.3503e+07 1094.16414   100%     -    0s
H    0     0                    1.349995e+07 1094.16414   100%     -    0s
     0     0 1094.16414    0  154 1.3500e+07 1094.16414   100%     -    0s
     0     0 1094.16414    0  154 1.3500e+07 1094.16414   100%     -    1s
     0     0 1094.16414    0  115 1.3500e+07 1094.16414   100%     -    2s
H    0     0                    1.348695e+07 1094.16414   100%     -    2s
     0     0 1094.16414    0  180 1.3487e+07 1094.16414   100%     -    2s
     0     0 1094.16414    0  159 1.3487e+07 1094.16414   100%     -    3s
     0     0 1094.16414    0  138 1.3487e+07 1094.16414   100%     -    3s
     0     0 1094.16414    0  183 1.3487e+07 1094.16414   100%     -    3s
H    0     0                    7039059.6680 1094.16414   100%     -    4s
     0     0 1094.16414    0  191 7039059.67 1094.16414   100%     -    4s
     0     0 1094.16414    0  131 7039059.67 1094.16414   100%     -    5s
     0     0 1094.16414    0  127 7039059.67 1094.16414   100%     -    5s
     0     2 1094.16414    0  127 7039059.67 1094.16414   100%     -    6s
H  100   124                    7039059.4180 1094.16414   100%   113    8s
H  105   124                    6951451.9487 1094.16414   100%   108    8s
H  123   124                    2808650.5833 1094.16414   100%  96.9    8s
H  158   184                    2785805.5833 1094.16414   100%  81.2    8s
H  159   184                    2785770.5833 1094.16414   100%  80.7    8s
H  163   184                    2274026.5855 1094.16414   100%  80.1    8s
H  264   310                    2273836.5341 1094.16414   100%  65.8    9s
H  280   310                    1911329.0386 1094.16414   100%  63.7    9s
H  547   508                    1865609.5598 1094.16414   100%  46.0    9s
   702   735 454422.727   25  190 1865609.56 1094.16414   100%  40.2   10s
H  861   887                    1833935.4349 1094.16414   100%  37.0   10s
H  873   887                    1797043.5598 1094.16414   100%  36.8   10s
H  880   887                    1743934.4505 1094.16414   100%  36.6   10s
H  897   887                    1305413.1646 1094.16414   100%  36.8   10s
H  939   887                    523240.83333 1094.16414   100%  35.9   10s
H  945   887                    397073.20746 1094.16414   100%  35.9   10s
H 1057   958                    239281.62308 1094.16414   100%  33.9   10s
H 1086   958                    227472.94479 1094.16414   100%  33.8   10s
H 1184   958                    198141.08333 1094.16414  99.4%  33.3   10s
H 1267  1071                    198140.89583 1094.16414  99.4%  33.8   10s
H 1280  1071                    196601.08333 1094.16414  99.4%  34.1   10s
H 1327  1071                    135566.01952 1094.16414  99.2%  34.4   10s
H 1663  1222                    109195.32573 1094.16414  99.0%  37.7   11s
H 1982  1500                    103930.10252 1094.16414  98.9%  39.0   12s
H 2303  1620                    103930.04002 1094.16414  98.9%  38.4   12s
H 2411  1620                    103677.91502 1094.16414  98.9%  38.8   12s
H 2441  1620                    103386.80070 1094.16414  98.9%  38.8   12s
H 2467  1620                    99472.430525 1094.16414  98.9%  39.1   12s
H 2721  1794                    99471.493025 1094.16414  98.9%  38.5   13s
* 2820  1903              71    70860.078598 1094.16414  98.5%  38.4   13s
H 3274  1828                    68200.078598 1094.16414  98.4%  39.4   14s
  3470  1883 65176.6709   22  158 68200.0786 1094.16414  98.4%  40.9   15s
H 3742  1883                    56042.128953 1094.16414  98.0%  40.4   15s
H 3758  1729                    56041.691453 1094.16414  98.0%  40.6   15s
* 4311  1806              58    50963.138101 1094.16414  97.9%  42.1   16s
H 5023  1752                    50012.888101 1094.16414  97.8%  42.6   18s
H 5698  1831                    50012.700601 1094.16414  97.8%  42.3   19s
  5723  1683 3322.24612   17  108 50012.7006 1094.16414  97.8%  42.3   22s
  5727  1686 21765.3288   19  162 50012.7006 1094.16414  97.8%  42.3   25s
  5740  1695 49974.9506   60  176 50012.7006 1094.16414  97.8%  42.2   30s
H 5800  1646                    48937.354256 18101.5852  63.0%  41.7   33s
  5823  1661 21164.3975   17  158 48937.3543 21164.3975  56.8%  41.6   35s
H 5823  1577                    46255.151466 21164.3975  54.2%  41.6   35s
  5832  1584 21691.2294   16   66 46255.1515 21164.3975  54.2%  44.5   41s
  5838  1588 43238.6527   24   51 46255.1515 21164.3975  54.2%  44.4   45s
  5857  1606 28356.8605   32  170 46255.1515 21164.3975  54.2%  46.0   52s
  5877  1627 infeasible   34      46255.1515 21164.3975  54.2%  46.8   58s
  5965  1640 28357.7824   37  131 46255.1515 21164.3975  54.2%  47.9   64s
H 6028  1553                    46002.620565 21164.3975  54.0%  48.3   64s
  6029  1575 21164.3975   37  170 46002.6206 21164.3975  54.0%  48.4   65s
  6151  1551 21356.4741   38  200 46002.6206 21164.3975  54.0%  48.6   73s
H 6207  1493                    46002.245565 21164.3975  54.0%  48.8   73s
H 6393  1436                    46001.870565 21164.3975  54.0%  48.6   74s
H 6395  1367                    45730.745565 21164.3975  53.7%  48.6   74s
  6481  1363 43471.7548   40   82 45730.7456 21164.3975  53.7%  48.3   75s
H 6613  1298                    43259.956191 21164.3975  51.1%  47.9   76s
* 6797  1100              58    42984.599818 21164.3975  50.8%  47.4   77s
  6976   975 34756.1088   41  111 42984.5998 21164.3975  50.8%  47.7   80s
H 6989   912                    41083.058396 21164.3975  48.5%  47.8   80s
H 7216   666                    41083.058390 21164.3975  48.5%  47.9   83s
  7351   577 39404.9592   45   56 41083.0584 23430.4619  43.0%  48.2   85s
* 7526   465              52    40852.538685 34770.3776  14.9%  48.2   88s

Cutting planes:
  Gomory: 58
  Implied bound: 206
  Projected implied bound: 4
  Clique: 1
  MIR: 180
  Mixing: 4
  StrongCG: 14
  Flow cover: 239
  Inf proof: 9
  Zero half: 3
  RLT: 233
  Relax-and-lift: 48

Explored 7617 nodes (372080 simplex iterations) in 89.19 seconds (5.89 work units)
Thread count was 32 (of 128 available processors)

Solution count 10: 40852.5 41083.1 42984.6 ... 48937.4

Optimal solution found (tolerance 1.00e-04)
Warning: max constraint violation (7.6333e-04) exceeds tolerance
Warning: max general constraint violation (7.6333e-04) exceeds tolerance
Best objective 4.085253868473e+04, best bound 4.085156560313e+04, gap 0.0024%
